
420.0
220.0
220.0
230.0
230.0
220.0
220.0
220.0
220.0
220.0
220.0
220.0
270.0
220.0
220.0
220.0
220.0
220.0
220.0
220.0
220.0
220.0
220.0
220.0
220.0
220.0
220.0
220.0
220.0
230.0
410.0
220.0
220.0
220.0
220.0
220.0
290.0
220.0
220.0
220.0
220.0
220.0
220.0
220.0
220.0
230.0
220.0
220.0
220.0
220.0
220.0
220.0
220.0
230.0
220.0
220.0
220.0
220.0
220.0
220.0
220.0
220.0
220.0
220.0
220.0
220.0
220.0
220.0
220.0
220.0
220.0
220.0
220.0
220.0
220.0
220.0
220.0
260.0
220.0
220.0